p cnf 14 64
-4 -11 -13 0
-2 -10 14 0
8 -9 -14 0
3 -9 -12 0
5 6 14 0
-1 4 12 0
1 -8 9 0
-2 -11 -12 0
2 4 11 0
3 -5 12 0
11 -12 14 0
-3 -8 -13 0
1 -3 10 0
5 -7 -10 0
3 8 10 0
-5 -11 -12 0
-2 5 -9 0
-8 9 -10 0
-4 8 -11 0
-2 5 -13 0
7 -8 14 0
6 11 13 0
-4 -13 14 0
-7 -8 13 0
3 -4 9 0
3 7 8 0
-1 3 -5 0
1 6 12 0
1 10 11 0
-7 8 14 0
-5 6 14 0
1 -6 12 0
-3 -5 13 0
7 -9 12 0
-3 5 12 0
-1 -7 -10 0
-5 10 13 0
1 -4 6 0
4 9 -14 0
2 11 14 0
3 5 -13 0
-3 -8 10 0
2 -13 -14 0
-3 5 13 0
4 -5 13 0
-4 7 11 0
1 4 11 0
-1 7 -14 0
-8 9 -11 0
1 -8 -14 0
1 9 12 0
-1 -10 11 0
3 4 -9 0
5 -7 11 0
-2 4 -12 0
-1 4 5 0
-4 5 11 0
-7 12 -13 0
-8 10 14 0
3 -6 9 0
-7 8 -9 0
4 7 -11 0
2 9 13 0
2 -4 -6 0
